
;this file is automatically generated: Tue May 28 11:28:46 CST 2019

;declarations generated

(declare-fun oclExcludes ( Int Int) Bool )
(declare-fun oclSelect ( Int Bool) Int )
(declare-fun type_82cb11f1_e869_4f96_bdfd_da3e5697f5c1_B ( Int) Bool )
(declare-fun type_162b1af9_6cc9_4272_9355_c1b784985961_C ( Int) Bool )
(declare-fun Cardinality ( Int) Int )
(declare-fun obj_0dbfbfef_bd5e_4697_8d92_38e215d5cb34 ( Int) Int )
(declare-fun container_ ( Int) Int )
(declare-fun type_2ddc1c8c_d7cd_445a_a774_63fd0db59def_A ( Int) Bool )
(declare-fun oclIncludes ( Int Int) Bool )
(declare-fun type_3ff65255_0f54_478f_b35e_c0d025c5d4e0_D ( Int) Bool )
(declare-fun aux1 () Int )
(declare-fun aux0 () Int )
(declare-fun aux3 () Int )
(declare-fun aux2 () Int )
(declare-fun aux4 () Int )
(declare-fun weight4 () Int )
(declare-fun weight3 () Int )
(declare-fun ObjAt ( Int Int) Int )
(declare-fun weight2 () Int )
(declare-fun weight1 () Int )
(declare-fun weight0 () Int )

;formula(s) generated
(assert (and (>= aux0 0) (<= aux0 1)))
(assert (or (or (forall ((b Int)) (=> (and ( type_82cb11f1_e869_4f96_bdfd_da3e5697f5c1_B b )  ( type_2ddc1c8c_d7cd_445a_a774_63fd0db59def_A b ) ) (forall ((c Int)) (=> (and ( type_162b1af9_6cc9_4272_9355_c1b784985961_C c )  ( type_2ddc1c8c_d7cd_445a_a774_63fd0db59def_A c ) ) (not (= ( obj_0dbfbfef_bd5e_4697_8d92_38e215d5cb34 b )  ( obj_0dbfbfef_bd5e_4697_8d92_38e215d5cb34 c ) ) ))))) (and (= aux0 1) true)) (and (= aux0 0) false)))
(assert (and (=> (= aux0 0) (= weight0 1)) (=> (= aux0 1) (= weight0 0))))
(assert (and (>= aux1 0) (<= aux1 1)))
(assert (and (>= aux2 0) (<= aux2 1)))
(assert (and (>= aux3 0) (<= aux3 1)))
(assert (and (>= aux4 0) (<= aux4 1)))
(assert (or (or (exists ((p Int)) ( type_2ddc1c8c_d7cd_445a_a774_63fd0db59def_A ( obj_0dbfbfef_bd5e_4697_8d92_38e215d5cb34 p )  ) ) (and (= aux1 1) true)) (and (= aux1 0) false)))
(assert (and (=> (= aux1 0) (= weight1 1)) (=> (= aux1 1) (= weight1 0))))
(assert (or (or (exists ((p Int)) (and ( type_82cb11f1_e869_4f96_bdfd_da3e5697f5c1_B ( obj_0dbfbfef_bd5e_4697_8d92_38e215d5cb34 p )  )  ( type_2ddc1c8c_d7cd_445a_a774_63fd0db59def_A ( obj_0dbfbfef_bd5e_4697_8d92_38e215d5cb34 p )  ) )) (and (= aux2 1) true)) (and (= aux2 0) false)))
(assert (and (=> (= aux2 0) (= weight2 1)) (=> (= aux2 1) (= weight2 0))))
(assert (or (or (exists ((p Int)) (and ( type_162b1af9_6cc9_4272_9355_c1b784985961_C ( obj_0dbfbfef_bd5e_4697_8d92_38e215d5cb34 p )  )  ( type_2ddc1c8c_d7cd_445a_a774_63fd0db59def_A ( obj_0dbfbfef_bd5e_4697_8d92_38e215d5cb34 p )  ) )) (and (= aux3 1) true)) (and (= aux3 0) false)))
(assert (and (=> (= aux3 0) (= weight3 1)) (=> (= aux3 1) (= weight3 0))))
(assert (or (or (exists ((p Int)) (and (and (and ( type_3ff65255_0f54_478f_b35e_c0d025c5d4e0_D ( obj_0dbfbfef_bd5e_4697_8d92_38e215d5cb34 p )  )  ( type_2ddc1c8c_d7cd_445a_a774_63fd0db59def_A ( obj_0dbfbfef_bd5e_4697_8d92_38e215d5cb34 p )  ) ) ( type_82cb11f1_e869_4f96_bdfd_da3e5697f5c1_B ( obj_0dbfbfef_bd5e_4697_8d92_38e215d5cb34 p )  ) ) ( type_162b1af9_6cc9_4272_9355_c1b784985961_C ( obj_0dbfbfef_bd5e_4697_8d92_38e215d5cb34 p )  ) )) (and (= aux4 1) true)) (and (= aux4 0) false)))
(assert (and (=> (= aux4 0) (= weight4 1)) (=> (= aux4 1) (= weight4 0))))
(assert (= (+ (+ (+ (+ weight0 weight1) weight2) weight3) weight4) 4))
(assert (not (and (and (and (and (= weight0 1) (= weight1 1)) (= weight2 1)) (= weight3 1)) (= weight4 0)) ))
(assert (not (and (and (and (and (= weight0 0) (= weight1 1)) (= weight2 1)) (= weight3 1)) (= weight4 1)) ))
